instances/knapsack/discrete_knapsack_uncertainty/knapsack_120_14.lp
\ Model knapsack_120_14
\ LP format - for model browsing. Use MPS format to capture full model detail.
\ Signature: 0x89f048c0c90eaa9
Minimize
  - 72 x[0] - 96 x[1] - 86 x[2] - 22 x[3] - 83 x[4] - 87 x[5] - 51 x[6]
   - 77 x[7] - 56 x[8] - 80 x[9] - 21 x[10] - 65 x[11] - 53 x[12]
   - 24 x[13] - x[14] - 14 x[15] - 16 x[16] - 12 x[17] - 56 x[18]
   - 39 x[19] - 91 x[20] - x[21] - 34 x[22] - 54 x[23] - 35 x[24]
   - 84 x[25] - 22 x[26] - 57 x[27] - 4 x[28] - 6 x[29] - 67 x[30]
   - 18 x[31] - 6 x[32] - 25 x[33] - 81 x[34] - 27 x[35] - 59 x[36]
   - 37 x[37] - 84 x[38] - 45 x[39] - 30 x[40] - 31 x[41] - 19 x[42]
   - 73 x[43] - 36 x[44] - 69 x[45] - 90 x[46] - 10 x[47] - 30 x[48]
   - 35 x[49] - 33 x[50] - 20 x[51] - 13 x[52] - 99 x[53] - 78 x[54]
   - 44 x[55] - 40 x[56] - 58 x[57] - 66 x[58] - 17 x[59] - 74 x[60]
   - 80 x[61] - 19 x[62] - 75 x[63] - 72 x[64] - 7 x[65] - 59 x[66]
   - 55 x[67] - 50 x[68] - 31 x[69] - 55 x[70] - 77 x[71] - 39 x[72]
   - 79 x[73] - 16 x[74] - 60 x[75] - 16 x[76] - 87 x[77] - 94 x[78]
   - 9 x[79] - 81 x[80] - 48 x[81] - 47 x[82] - 24 x[83] - 75 x[84]
   - 66 x[85] - 72 x[86] - 41 x[87] - 78 x[88] - 80 x[89] - 28 x[90]
   - 99 x[91] - 11 x[92] - 30 x[93] - 82 x[94] - 92 x[95] - 3 x[96]
   - 66 x[97] - 94 x[98] - 50 x[99] - 82 x[100] - 43 x[101] - 36 x[102]
   - 71 x[103] - 29 x[104] - 25 x[105] - 100 x[106] - 18 x[107] - 20 x[108]
   - 10 x[109] - 43 x[110] - 48 x[111] - 87 x[112] - 97 x[113] - 72 x[114]
   - 67 x[115] - 69 x[116] - 47 x[117] - 76 x[118] - 25 x[119]
Subject To
 primal_upper: 59 x[0] + 48 x[1] + 90 x[2] + 43 x[3] + 12 x[4] + 9 x[5]
   + 49 x[6] + 87 x[7] + 93 x[8] + 26 x[9] + 23 x[10] + 87 x[11] + 48 x[12]
   + 32 x[13] + 92 x[14] + 8 x[15] + 61 x[16] + 76 x[17] + 33 x[18]
   + 54 x[19] + 17 x[20] + 91 x[21] + 96 x[22] + 42 x[23] + 92 x[24]
   + 16 x[25] + 30 x[26] + 31 x[27] + 85 x[28] + 39 x[29] + 17 x[30]
   + 95 x[31] + 59 x[32] + 73 x[33] + 60 x[34] + 69 x[35] + 96 x[36]
   + 48 x[37] + 60 x[38] + 98 x[39] + 7 x[40] + 29 x[41] + 30 x[42]
   + 53 x[43] + 63 x[44] + 58 x[45] + 37 x[46] + 41 x[47] + 59 x[48]
   + 72 x[49] + 10 x[50] + 60 x[51] + 65 x[52] + 84 x[53] + 92 x[54]
   + 3 x[55] + 25 x[56] + 94 x[57] + 60 x[58] + 70 x[59] + 8 x[60]
   + 94 x[61] + 47 x[62] + 18 x[63] + 39 x[64] + 36 x[65] + 80 x[66]
   + 14 x[67] + 76 x[68] + 25 x[69] + 5 x[70] + 69 x[71] + 42 x[72]
   + 31 x[73] + 51 x[74] + 96 x[75] + 34 x[76] + 79 x[77] + 72 x[78]
   + 2 x[79] + 73 x[80] + 45 x[81] + 78 x[82] + 57 x[83] + 65 x[84]
   + 9 x[85] + 67 x[86] + 88 x[87] + 82 x[88] + 7 x[89] + 48 x[90]
   + 48 x[91] + 76 x[92] + 31 x[93] + 16 x[94] + 13 x[95] + 93 x[96]
   + 20 x[97] + 80 x[98] + 88 x[99] + x[100] + 20 x[101] + 18 x[102]
   + 28 x[103] + 89 x[104] + 62 x[105] + 39 x[106] + 26 x[107] + 90 x[108]
   + 97 x[109] + 86 x[110] + 79 x[111] + 61 x[112] + 89 x[113] + 61 x[114]
   + 94 x[115] + 35 x[116] + 25 x[117] + 77 x[118] + 100 x[119] + 5.9 r[0]
   + 4.8 r[1] + 9 r[2] + 4.3 r[3] + 1.2 r[4] + 0.9 r[5] + 4.9 r[6]
   + 8.7 r[7] + 9.3 r[8] + 2.6 r[9] + 2.3 r[10] + 8.7 r[11] + 4.8 r[12]
   + 3.2 r[13] + 9.2 r[14] + 0.8 r[15] + 6.1 r[16] + 7.6 r[17] + 3.3 r[18]
   + 5.4 r[19] + 1.7 r[20] + 9.1 r[21] + 9.6 r[22] + 4.2 r[23] + 9.2 r[24]
   + 1.6 r[25] + 3 r[26] + 3.1 r[27] + 8.5 r[28] + 3.9 r[29] + 1.7 r[30]
   + 9.5 r[31] + 5.9 r[32] + 7.3 r[33] + 6 r[34] + 6.9 r[35] + 9.6 r[36]
   + 4.8 r[37] + 6 r[38] + 9.8 r[39] + 0.7 r[40] + 2.9 r[41] + 3 r[42]
   + 5.3 r[43] + 6.3 r[44] + 5.8 r[45] + 3.7 r[46] + 4.1 r[47] + 5.9 r[48]
   + 7.2 r[49] + r[50] + 6 r[51] + 6.5 r[52] + 8.4 r[53] + 9.2 r[54]
   + 0.3 r[55] + 2.5 r[56] + 9.4 r[57] + 6 r[58] + 7 r[59] + 0.8 r[60]
   + 9.4 r[61] + 4.7 r[62] + 1.8 r[63] + 3.9 r[64] + 3.6 r[65] + 8 r[66]
   + 1.4 r[67] + 7.6 r[68] + 2.5 r[69] + 0.5 r[70] + 6.9 r[71] + 4.2 r[72]
   + 3.1 r[73] + 5.1 r[74] + 9.6 r[75] + 3.4 r[76] + 7.9 r[77] + 7.2 r[78]
   + 0.2 r[79] + 7.3 r[80] + 4.5 r[81] + 7.8 r[82] + 5.7 r[83] + 6.5 r[84]
   + 0.9 r[85] + 6.7 r[86] + 8.8 r[87] + 8.2 r[88] + 0.7 r[89] + 4.8 r[90]
   + 4.8 r[91] + 7.6 r[92] + 3.1 r[93] + 1.6 r[94] + 1.3 r[95] + 9.3 r[96]
   + 2 r[97] + 8 r[98] + 8.8 r[99] + 0.1 r[100] + 2 r[101] + 1.8 r[102]
   + 2.8 r[103] + 8.9 r[104] + 6.2 r[105] + 3.9 r[106] + 2.6 r[107]
   + 9 r[108] + 9.7 r[109] + 8.6 r[110] + 7.9 r[111] + 6.1 r[112]
   + 8.9 r[113] + 6.1 r[114] + 9.4 r[115] + 3.5 r[116] + 2.5 r[117]
   + 7.7 r[118] + 10 r[119] <= 612
 primal_lower: 4.120067803542993 x[0] + 0.995184126475716 x[1]
   + 0.1776013694804106 x[2] + 1.544502538070966 x[3]
   + 3.004524281347893 x[4] + 0.067681128828682 x[5]
   + 2.262679644762843 x[6] + 0.0584787355089958 x[7]
   + 0.3413667224960181 x[8] + 2.06819410156309 x[9]
   + 3.016150233839507 x[10] + 4.66564140214189 x[11]
   + 0.9466953993963039 x[12] + 3.88157338466896 x[13]
   + 2.41733489644953 x[14] + 3.787681931586809 x[15]
   + 0.2370010877712614 x[16] + 3.690905976854266 x[17]
   + 2.368005086970002 x[18] + 0.1312863210972713 x[19]
   + 3.600118849356695 x[20] + 0.3463754586133221 x[21]
   + 4.660402917969324 x[22] + 4.330514986913011 x[23]
   + 0.9444075949886095 x[24] + 4.643721663245022 x[25]
   + 2.116227795287063 x[26] + 0.0945219894539374 x[27]
   + 4.163065126805235 x[28] + 1.958160664049697 x[29]
   + 0.4259043996208605 x[30] + 1.246723937323269 x[31]
   + 1.648897044795188 x[32] + 0.4330862552286953 x[33]
   + 3.425233022762225 x[34] + 2.442580090707451 x[35]
   + 2.311332558600705 x[36] + 4.475863243418067 x[37]
   + 2.977751580283305 x[38] + 0.5427990759477759 x[39]
   + 4.479570944796898 x[40] + 4.515628176371237 x[41]
   + 0.2663435810617423 x[42] + 0.2545088956011667 x[43]
   + 4.346152229190757 x[44] + 1.297950736809381 x[45]
   + 4.285537451100113 x[46] + 1.12332477831077 x[47]
   + 2.195156825209502 x[48] + 1.069930431930326 x[49]
   + 0.7745998526049626 x[50] + 4.290953758229831 x[51]
   + 4.620517767845683 x[52] + 1.543485984838871 x[53]
   + 3.346333675231598 x[54] + 0.9275324379135781 x[55]
   + 2.67165254384917 x[56] + 0.2045416816659405 x[57]
   + 3.245309915963323 x[58] + 4.579073368087737 x[59]
   + 2.864803759935205 x[60] + 1.455376928674132 x[61]
   + 2.99805212319434 x[62] + 2.06062933483366 x[63]
   + 1.53014474323912 x[64] + 1.272253556298144 x[65]
   + 0.4856454931550303 x[66] + 3.499143957467519 x[67]
   + 2.998126264441695 x[68] + 0.8189143417050923 x[69]
   + 2.646779036269012 x[70] + 1.351610682834752 x[71]
   + 1.131596095933911 x[72] + 1.07712024543052 x[73]
   + 3.892748412939954 x[74] + 0.4215281284927428 x[75]
   + 2.24335902439819 x[76] + 4.255533489819086 x[77]
   + 3.226653829369126 x[78] + 3.907215551927784 x[79]
   + 3.076666430314314 x[80] + 1.278921100410961 x[81]
   + 3.561630991744258 x[82] + 1.576169398018812 x[83]
   + 3.139346177574653 x[84] + 2.348304507315459 x[85]
   + 1.793314333639919 x[86] + 3.437296762682057 x[87]
   + 2.049347973269728 x[88] + 0.2649865177895136 x[89]
   + 4.212502525161488 x[90] + 1.283417858350436 x[91]
   + 2.841422405494485 x[92] + 0.8777947235729769 x[93]
   + 2.117669894981831 x[94] + 0.838806934279228 x[95]
   + 4.346477375685948 x[96] + 4.162626392144519 x[97]
   + 1.870958800934702 x[98] + 3.088713142587601 x[99]
   + 4.351307925417014 x[100] + 2.871705130061743 x[101]
   + 3.980038378018862 x[102] + 0.2718113582158297 x[103]
   + 1.572714958336438 x[104] + 0.7313773030296219 x[105]
   + 4.035951609646066 x[106] + 3.199861255769687 x[107]
   + 1.624227943503053 x[108] + 4.625479478040875 x[109]
   + 3.836216511506626 x[110] + 0.1166037725100758 x[111]
   + 3.45028485913868 x[112] + 0.2956770617508345 x[113]
   + 1.103621292808093 x[114] + 4.632595298157764 x[115]
   + 2.544305914165963 x[116] + 2.50796496872324 x[117]
   + 1.541048294614918 x[118] + 0.0896860243255299 x[119] + 40 u[0]
   + 68 u[1] + 54 u[2] + 71 u[3] + 36 u[4] + 42 u[5] + 77 u[6] + 68 u[7]
   + 21 u[8] + 42 u[9] + 76 u[10] + 19 u[11] + 60 u[12] + 44 u[13]
   + 49 u[14] + 77 u[15] + 29 u[16] + 52 u[17] + 73 u[18] + 34 u[19]
   + 17 u[20] + 28 u[21] + 20 u[22] + 87 u[23] + 9 u[24] + 52 u[25]
   + 86 u[26] + 36 u[27] + 38 u[28] + 87 u[29] + 38 u[30] + 60 u[31]
   + 28 u[32] + 13 u[33] + 32 u[34] + 29 u[35] + 44 u[36] + 93 u[37]
   + 88 u[38] + 99 u[39] + 79 u[40] + 6 u[41] + 38 u[42] + 78 u[43]
   + 83 u[44] + 23 u[45] + 78 u[46] + 58 u[47] + 15 u[48] + 84 u[49]
   + 55 u[50] + 16 u[51] + 89 u[52] + 4 u[53] + 77 u[54] + 64 u[55]
   + 97 u[56] + 27 u[57] + 12 u[58] + 82 u[59] + 37 u[60] + 19 u[61]
   + 36 u[62] + 99 u[63] + 32 u[64] + 64 u[65] + 29 u[66] + 7 u[67]
   + 56 u[68] + 94 u[69] + 10 u[70] + 22 u[71] + 10 u[72] + 47 u[73]
   + 20 u[74] + u[75] + 87 u[76] + 31 u[77] + 69 u[78] + 35 u[79]
   + 78 u[80] + 62 u[81] + 3 u[82] + 14 u[83] + 10 u[84] + 38 u[85]
   + 4 u[86] + 8 u[87] + 14 u[88] + 43 u[89] + 73 u[90] + 33 u[91]
   + 25 u[92] + 32 u[93] + 100 u[94] + 69 u[95] + 85 u[96] + 49 u[97]
   + 80 u[98] + 48 u[99] + 93 u[100] + 72 u[101] + 82 u[102] + 28 u[103]
   + 65 u[104] + 62 u[105] + 79 u[106] + 47 u[107] + 31 u[108] + 77 u[109]
   + 87 u[110] + 71 u[111] + 73 u[112] + 9 u[113] + 25 u[114] + 71 u[115]
   + 71 u[116] + 77 u[117] + u[118] + 29 u[119] <= 75842
 mccormick1[0]: - u[0] + r[0] <= 0
 mccormick1[1]: - u[1] + r[1] <= 0
 mccormick1[2]: - u[2] + r[2] <= 0
 mccormick1[3]: - u[3] + r[3] <= 0
 mccormick1[4]: - u[4] + r[4] <= 0
 mccormick1[5]: - u[5] + r[5] <= 0
 mccormick1[6]: - u[6] + r[6] <= 0
 mccormick1[7]: - u[7] + r[7] <= 0
 mccormick1[8]: - u[8] + r[8] <= 0
 mccormick1[9]: - u[9] + r[9] <= 0
 mccormick1[10]: - u[10] + r[10] <= 0
 mccormick1[11]: - u[11] + r[11] <= 0
 mccormick1[12]: - u[12] + r[12] <= 0
 mccormick1[13]: - u[13] + r[13] <= 0
 mccormick1[14]: - u[14] + r[14] <= 0
 mccormick1[15]: - u[15] + r[15] <= 0
 mccormick1[16]: - u[16] + r[16] <= 0
 mccormick1[17]: - u[17] + r[17] <= 0
 mccormick1[18]: - u[18] + r[18] <= 0
 mccormick1[19]: - u[19] + r[19] <= 0
 mccormick1[20]: - u[20] + r[20] <= 0
 mccormick1[21]: - u[21] + r[21] <= 0
 mccormick1[22]: - u[22] + r[22] <= 0
 mccormick1[23]: - u[23] + r[23] <= 0
 mccormick1[24]: - u[24] + r[24] <= 0
 mccormick1[25]: - u[25] + r[25] <= 0
 mccormick1[26]: - u[26] + r[26] <= 0
 mccormick1[27]: - u[27] + r[27] <= 0
 mccormick1[28]: - u[28] + r[28] <= 0
 mccormick1[29]: - u[29] + r[29] <= 0
 mccormick1[30]: - u[30] + r[30] <= 0
 mccormick1[31]: - u[31] + r[31] <= 0
 mccormick1[32]: - u[32] + r[32] <= 0
 mccormick1[33]: - u[33] + r[33] <= 0
 mccormick1[34]: - u[34] + r[34] <= 0
 mccormick1[35]: - u[35] + r[35] <= 0
 mccormick1[36]: - u[36] + r[36] <= 0
 mccormick1[37]: - u[37] + r[37] <= 0
 mccormick1[38]: - u[38] + r[38] <= 0
 mccormick1[39]: - u[39] + r[39] <= 0
 mccormick1[40]: - u[40] + r[40] <= 0
 mccormick1[41]: - u[41] + r[41] <= 0
 mccormick1[42]: - u[42] + r[42] <= 0
 mccormick1[43]: - u[43] + r[43] <= 0
 mccormick1[44]: - u[44] + r[44] <= 0
 mccormick1[45]: - u[45] + r[45] <= 0
 mccormick1[46]: - u[46] + r[46] <= 0
 mccormick1[47]: - u[47] + r[47] <= 0
 mccormick1[48]: - u[48] + r[48] <= 0
 mccormick1[49]: - u[49] + r[49] <= 0
 mccormick1[50]: - u[50] + r[50] <= 0
 mccormick1[51]: - u[51] + r[51] <= 0
 mccormick1[52]: - u[52] + r[52] <= 0
 mccormick1[53]: - u[53] + r[53] <= 0
 mccormick1[54]: - u[54] + r[54] <= 0
 mccormick1[55]: - u[55] + r[55] <= 0
 mccormick1[56]: - u[56] + r[56] <= 0
 mccormick1[57]: - u[57] + r[57] <= 0
 mccormick1[58]: - u[58] + r[58] <= 0
 mccormick1[59]: - u[59] + r[59] <= 0
 mccormick1[60]: - u[60] + r[60] <= 0
 mccormick1[61]: - u[61] + r[61] <= 0
 mccormick1[62]: - u[62] + r[62] <= 0
 mccormick1[63]: - u[63] + r[63] <= 0
 mccormick1[64]: - u[64] + r[64] <= 0
 mccormick1[65]: - u[65] + r[65] <= 0
 mccormick1[66]: - u[66] + r[66] <= 0
 mccormick1[67]: - u[67] + r[67] <= 0
 mccormick1[68]: - u[68] + r[68] <= 0
 mccormick1[69]: - u[69] + r[69] <= 0
 mccormick1[70]: - u[70] + r[70] <= 0
 mccormick1[71]: - u[71] + r[71] <= 0
 mccormick1[72]: - u[72] + r[72] <= 0
 mccormick1[73]: - u[73] + r[73] <= 0
 mccormick1[74]: - u[74] + r[74] <= 0
 mccormick1[75]: - u[75] + r[75] <= 0
 mccormick1[76]: - u[76] + r[76] <= 0
 mccormick1[77]: - u[77] + r[77] <= 0
 mccormick1[78]: - u[78] + r[78] <= 0
 mccormick1[79]: - u[79] + r[79] <= 0
 mccormick1[80]: - u[80] + r[80] <= 0
 mccormick1[81]: - u[81] + r[81] <= 0
 mccormick1[82]: - u[82] + r[82] <= 0
 mccormick1[83]: - u[83] + r[83] <= 0
 mccormick1[84]: - u[84] + r[84] <= 0
 mccormick1[85]: - u[85] + r[85] <= 0
 mccormick1[86]: - u[86] + r[86] <= 0
 mccormick1[87]: - u[87] + r[87] <= 0
 mccormick1[88]: - u[88] + r[88] <= 0
 mccormick1[89]: - u[89] + r[89] <= 0
 mccormick1[90]: - u[90] + r[90] <= 0
 mccormick1[91]: - u[91] + r[91] <= 0
 mccormick1[92]: - u[92] + r[92] <= 0
 mccormick1[93]: - u[93] + r[93] <= 0
 mccormick1[94]: - u[94] + r[94] <= 0
 mccormick1[95]: - u[95] + r[95] <= 0
 mccormick1[96]: - u[96] + r[96] <= 0
 mccormick1[97]: - u[97] + r[97] <= 0
 mccormick1[98]: - u[98] + r[98] <= 0
 mccormick1[99]: - u[99] + r[99] <= 0
 mccormick1[100]: - u[100] + r[100] <= 0
 mccormick1[101]: - u[101] + r[101] <= 0
 mccormick1[102]: - u[102] + r[102] <= 0
 mccormick1[103]: - u[103] + r[103] <= 0
 mccormick1[104]: - u[104] + r[104] <= 0
 mccormick1[105]: - u[105] + r[105] <= 0
 mccormick1[106]: - u[106] + r[106] <= 0
 mccormick1[107]: - u[107] + r[107] <= 0
 mccormick1[108]: - u[108] + r[108] <= 0
 mccormick1[109]: - u[109] + r[109] <= 0
 mccormick1[110]: - u[110] + r[110] <= 0
 mccormick1[111]: - u[111] + r[111] <= 0
 mccormick1[112]: - u[112] + r[112] <= 0
 mccormick1[113]: - u[113] + r[113] <= 0
 mccormick1[114]: - u[114] + r[114] <= 0
 mccormick1[115]: - u[115] + r[115] <= 0
 mccormick1[116]: - u[116] + r[116] <= 0
 mccormick1[117]: - u[117] + r[117] <= 0
 mccormick1[118]: - u[118] + r[118] <= 0
 mccormick1[119]: - u[119] + r[119] <= 0
 mccormick2[0]: - x[0] + r[0] <= 0
 mccormick2[1]: - x[1] + r[1] <= 0
 mccormick2[2]: - x[2] + r[2] <= 0
 mccormick2[3]: - x[3] + r[3] <= 0
 mccormick2[4]: - x[4] + r[4] <= 0
 mccormick2[5]: - x[5] + r[5] <= 0
 mccormick2[6]: - x[6] + r[6] <= 0
 mccormick2[7]: - x[7] + r[7] <= 0
 mccormick2[8]: - x[8] + r[8] <= 0
 mccormick2[9]: - x[9] + r[9] <= 0
 mccormick2[10]: - x[10] + r[10] <= 0
 mccormick2[11]: - x[11] + r[11] <= 0
 mccormick2[12]: - x[12] + r[12] <= 0
 mccormick2[13]: - x[13] + r[13] <= 0
 mccormick2[14]: - x[14] + r[14] <= 0
 mccormick2[15]: - x[15] + r[15] <= 0
 mccormick2[16]: - x[16] + r[16] <= 0
 mccormick2[17]: - x[17] + r[17] <= 0
 mccormick2[18]: - x[18] + r[18] <= 0
 mccormick2[19]: - x[19] + r[19] <= 0
 mccormick2[20]: - x[20] + r[20] <= 0
 mccormick2[21]: - x[21] + r[21] <= 0
 mccormick2[22]: - x[22] + r[22] <= 0
 mccormick2[23]: - x[23] + r[23] <= 0
 mccormick2[24]: - x[24] + r[24] <= 0
 mccormick2[25]: - x[25] + r[25] <= 0
 mccormick2[26]: - x[26] + r[26] <= 0
 mccormick2[27]: - x[27] + r[27] <= 0
 mccormick2[28]: - x[28] + r[28] <= 0
 mccormick2[29]: - x[29] + r[29] <= 0
 mccormick2[30]: - x[30] + r[30] <= 0
 mccormick2[31]: - x[31] + r[31] <= 0
 mccormick2[32]: - x[32] + r[32] <= 0
 mccormick2[33]: - x[33] + r[33] <= 0
 mccormick2[34]: - x[34] + r[34] <= 0
 mccormick2[35]: - x[35] + r[35] <= 0
 mccormick2[36]: - x[36] + r[36] <= 0
 mccormick2[37]: - x[37] + r[37] <= 0
 mccormick2[38]: - x[38] + r[38] <= 0
 mccormick2[39]: - x[39] + r[39] <= 0
 mccormick2[40]: - x[40] + r[40] <= 0
 mccormick2[41]: - x[41] + r[41] <= 0
 mccormick2[42]: - x[42] + r[42] <= 0
 mccormick2[43]: - x[43] + r[43] <= 0
 mccormick2[44]: - x[44] + r[44] <= 0
 mccormick2[45]: - x[45] + r[45] <= 0
 mccormick2[46]: - x[46] + r[46] <= 0
 mccormick2[47]: - x[47] + r[47] <= 0
 mccormick2[48]: - x[48] + r[48] <= 0
 mccormick2[49]: - x[49] + r[49] <= 0
 mccormick2[50]: - x[50] + r[50] <= 0
 mccormick2[51]: - x[51] + r[51] <= 0
 mccormick2[52]: - x[52] + r[52] <= 0
 mccormick2[53]: - x[53] + r[53] <= 0
 mccormick2[54]: - x[54] + r[54] <= 0
 mccormick2[55]: - x[55] + r[55] <= 0
 mccormick2[56]: - x[56] + r[56] <= 0
 mccormick2[57]: - x[57] + r[57] <= 0
 mccormick2[58]: - x[58] + r[58] <= 0
 mccormick2[59]: - x[59] + r[59] <= 0
 mccormick2[60]: - x[60] + r[60] <= 0
 mccormick2[61]: - x[61] + r[61] <= 0
 mccormick2[62]: - x[62] + r[62] <= 0
 mccormick2[63]: - x[63] + r[63] <= 0
 mccormick2[64]: - x[64] + r[64] <= 0
 mccormick2[65]: - x[65] + r[65] <= 0
 mccormick2[66]: - x[66] + r[66] <= 0
 mccormick2[67]: - x[67] + r[67] <= 0
 mccormick2[68]: - x[68] + r[68] <= 0
 mccormick2[69]: - x[69] + r[69] <= 0
 mccormick2[70]: - x[70] + r[70] <= 0
 mccormick2[71]: - x[71] + r[71] <= 0
 mccormick2[72]: - x[72] + r[72] <= 0
 mccormick2[73]: - x[73] + r[73] <= 0
 mccormick2[74]: - x[74] + r[74] <= 0
 mccormick2[75]: - x[75] + r[75] <= 0
 mccormick2[76]: - x[76] + r[76] <= 0
 mccormick2[77]: - x[77] + r[77] <= 0
 mccormick2[78]: - x[78] + r[78] <= 0
 mccormick2[79]: - x[79] + r[79] <= 0
 mccormick2[80]: - x[80] + r[80] <= 0
 mccormick2[81]: - x[81] + r[81] <= 0
 mccormick2[82]: - x[82] + r[82] <= 0
 mccormick2[83]: - x[83] + r[83] <= 0
 mccormick2[84]: - x[84] + r[84] <= 0
 mccormick2[85]: - x[85] + r[85] <= 0
 mccormick2[86]: - x[86] + r[86] <= 0
 mccormick2[87]: - x[87] + r[87] <= 0
 mccormick2[88]: - x[88] + r[88] <= 0
 mccormick2[89]: - x[89] + r[89] <= 0
 mccormick2[90]: - x[90] + r[90] <= 0
 mccormick2[91]: - x[91] + r[91] <= 0
 mccormick2[92]: - x[92] + r[92] <= 0
 mccormick2[93]: - x[93] + r[93] <= 0
 mccormick2[94]: - x[94] + r[94] <= 0
 mccormick2[95]: - x[95] + r[95] <= 0
 mccormick2[96]: - x[96] + r[96] <= 0
 mccormick2[97]: - x[97] + r[97] <= 0
 mccormick2[98]: - x[98] + r[98] <= 0
 mccormick2[99]: - x[99] + r[99] <= 0
 mccormick2[100]: - x[100] + r[100] <= 0
 mccormick2[101]: - x[101] + r[101] <= 0
 mccormick2[102]: - x[102] + r[102] <= 0
 mccormick2[103]: - x[103] + r[103] <= 0
 mccormick2[104]: - x[104] + r[104] <= 0
 mccormick2[105]: - x[105] + r[105] <= 0
 mccormick2[106]: - x[106] + r[106] <= 0
 mccormick2[107]: - x[107] + r[107] <= 0
 mccormick2[108]: - x[108] + r[108] <= 0
 mccormick2[109]: - x[109] + r[109] <= 0
 mccormick2[110]: - x[110] + r[110] <= 0
 mccormick2[111]: - x[111] + r[111] <= 0
 mccormick2[112]: - x[112] + r[112] <= 0
 mccormick2[113]: - x[113] + r[113] <= 0
 mccormick2[114]: - x[114] + r[114] <= 0
 mccormick2[115]: - x[115] + r[115] <= 0
 mccormick2[116]: - x[116] + r[116] <= 0
 mccormick2[117]: - x[117] + r[117] <= 0
 mccormick2[118]: - x[118] + r[118] <= 0
 mccormick2[119]: - x[119] + r[119] <= 0
 mccormick3[0]: x[0] + u[0] - r[0] <= 1
 mccormick3[1]: x[1] + u[1] - r[1] <= 1
 mccormick3[2]: x[2] + u[2] - r[2] <= 1
 mccormick3[3]: x[3] + u[3] - r[3] <= 1
 mccormick3[4]: x[4] + u[4] - r[4] <= 1
 mccormick3[5]: x[5] + u[5] - r[5] <= 1
 mccormick3[6]: x[6] + u[6] - r[6] <= 1
 mccormick3[7]: x[7] + u[7] - r[7] <= 1
 mccormick3[8]: x[8] + u[8] - r[8] <= 1
 mccormick3[9]: x[9] + u[9] - r[9] <= 1
 mccormick3[10]: x[10] + u[10] - r[10] <= 1
 mccormick3[11]: x[11] + u[11] - r[11] <= 1
 mccormick3[12]: x[12] + u[12] - r[12] <= 1
 mccormick3[13]: x[13] + u[13] - r[13] <= 1
 mccormick3[14]: x[14] + u[14] - r[14] <= 1
 mccormick3[15]: x[15] + u[15] - r[15] <= 1
 mccormick3[16]: x[16] + u[16] - r[16] <= 1
 mccormick3[17]: x[17] + u[17] - r[17] <= 1
 mccormick3[18]: x[18] + u[18] - r[18] <= 1
 mccormick3[19]: x[19] + u[19] - r[19] <= 1
 mccormick3[20]: x[20] + u[20] - r[20] <= 1
 mccormick3[21]: x[21] + u[21] - r[21] <= 1
 mccormick3[22]: x[22] + u[22] - r[22] <= 1
 mccormick3[23]: x[23] + u[23] - r[23] <= 1
 mccormick3[24]: x[24] + u[24] - r[24] <= 1
 mccormick3[25]: x[25] + u[25] - r[25] <= 1
 mccormick3[26]: x[26] + u[26] - r[26] <= 1
 mccormick3[27]: x[27] + u[27] - r[27] <= 1
 mccormick3[28]: x[28] + u[28] - r[28] <= 1
 mccormick3[29]: x[29] + u[29] - r[29] <= 1
 mccormick3[30]: x[30] + u[30] - r[30] <= 1
 mccormick3[31]: x[31] + u[31] - r[31] <= 1
 mccormick3[32]: x[32] + u[32] - r[32] <= 1
 mccormick3[33]: x[33] + u[33] - r[33] <= 1
 mccormick3[34]: x[34] + u[34] - r[34] <= 1
 mccormick3[35]: x[35] + u[35] - r[35] <= 1
 mccormick3[36]: x[36] + u[36] - r[36] <= 1
 mccormick3[37]: x[37] + u[37] - r[37] <= 1
 mccormick3[38]: x[38] + u[38] - r[38] <= 1
 mccormick3[39]: x[39] + u[39] - r[39] <= 1
 mccormick3[40]: x[40] + u[40] - r[40] <= 1
 mccormick3[41]: x[41] + u[41] - r[41] <= 1
 mccormick3[42]: x[42] + u[42] - r[42] <= 1
 mccormick3[43]: x[43] + u[43] - r[43] <= 1
 mccormick3[44]: x[44] + u[44] - r[44] <= 1
 mccormick3[45]: x[45] + u[45] - r[45] <= 1
 mccormick3[46]: x[46] + u[46] - r[46] <= 1
 mccormick3[47]: x[47] + u[47] - r[47] <= 1
 mccormick3[48]: x[48] + u[48] - r[48] <= 1
 mccormick3[49]: x[49] + u[49] - r[49] <= 1
 mccormick3[50]: x[50] + u[50] - r[50] <= 1
 mccormick3[51]: x[51] + u[51] - r[51] <= 1
 mccormick3[52]: x[52] + u[52] - r[52] <= 1
 mccormick3[53]: x[53] + u[53] - r[53] <= 1
 mccormick3[54]: x[54] + u[54] - r[54] <= 1
 mccormick3[55]: x[55] + u[55] - r[55] <= 1
 mccormick3[56]: x[56] + u[56] - r[56] <= 1
 mccormick3[57]: x[57] + u[57] - r[57] <= 1
 mccormick3[58]: x[58] + u[58] - r[58] <= 1
 mccormick3[59]: x[59] + u[59] - r[59] <= 1
 mccormick3[60]: x[60] + u[60] - r[60] <= 1
 mccormick3[61]: x[61] + u[61] - r[61] <= 1
 mccormick3[62]: x[62] + u[62] - r[62] <= 1
 mccormick3[63]: x[63] + u[63] - r[63] <= 1
 mccormick3[64]: x[64] + u[64] - r[64] <= 1
 mccormick3[65]: x[65] + u[65] - r[65] <= 1
 mccormick3[66]: x[66] + u[66] - r[66] <= 1
 mccormick3[67]: x[67] + u[67] - r[67] <= 1
 mccormick3[68]: x[68] + u[68] - r[68] <= 1
 mccormick3[69]: x[69] + u[69] - r[69] <= 1
 mccormick3[70]: x[70] + u[70] - r[70] <= 1
 mccormick3[71]: x[71] + u[71] - r[71] <= 1
 mccormick3[72]: x[72] + u[72] - r[72] <= 1
 mccormick3[73]: x[73] + u[73] - r[73] <= 1
 mccormick3[74]: x[74] + u[74] - r[74] <= 1
 mccormick3[75]: x[75] + u[75] - r[75] <= 1
 mccormick3[76]: x[76] + u[76] - r[76] <= 1
 mccormick3[77]: x[77] + u[77] - r[77] <= 1
 mccormick3[78]: x[78] + u[78] - r[78] <= 1
 mccormick3[79]: x[79] + u[79] - r[79] <= 1
 mccormick3[80]: x[80] + u[80] - r[80] <= 1
 mccormick3[81]: x[81] + u[81] - r[81] <= 1
 mccormick3[82]: x[82] + u[82] - r[82] <= 1
 mccormick3[83]: x[83] + u[83] - r[83] <= 1
 mccormick3[84]: x[84] + u[84] - r[84] <= 1
 mccormick3[85]: x[85] + u[85] - r[85] <= 1
 mccormick3[86]: x[86] + u[86] - r[86] <= 1
 mccormick3[87]: x[87] + u[87] - r[87] <= 1
 mccormick3[88]: x[88] + u[88] - r[88] <= 1
 mccormick3[89]: x[89] + u[89] - r[89] <= 1
 mccormick3[90]: x[90] + u[90] - r[90] <= 1
 mccormick3[91]: x[91] + u[91] - r[91] <= 1
 mccormick3[92]: x[92] + u[92] - r[92] <= 1
 mccormick3[93]: x[93] + u[93] - r[93] <= 1
 mccormick3[94]: x[94] + u[94] - r[94] <= 1
 mccormick3[95]: x[95] + u[95] - r[95] <= 1
 mccormick3[96]: x[96] + u[96] - r[96] <= 1
 mccormick3[97]: x[97] + u[97] - r[97] <= 1
 mccormick3[98]: x[98] + u[98] - r[98] <= 1
 mccormick3[99]: x[99] + u[99] - r[99] <= 1
 mccormick3[100]: x[100] + u[100] - r[100] <= 1
 mccormick3[101]: x[101] + u[101] - r[101] <= 1
 mccormick3[102]: x[102] + u[102] - r[102] <= 1
 mccormick3[103]: x[103] + u[103] - r[103] <= 1
 mccormick3[104]: x[104] + u[104] - r[104] <= 1
 mccormick3[105]: x[105] + u[105] - r[105] <= 1
 mccormick3[106]: x[106] + u[106] - r[106] <= 1
 mccormick3[107]: x[107] + u[107] - r[107] <= 1
 mccormick3[108]: x[108] + u[108] - r[108] <= 1
 mccormick3[109]: x[109] + u[109] - r[109] <= 1
 mccormick3[110]: x[110] + u[110] - r[110] <= 1
 mccormick3[111]: x[111] + u[111] - r[111] <= 1
 mccormick3[112]: x[112] + u[112] - r[112] <= 1
 mccormick3[113]: x[113] + u[113] - r[113] <= 1
 mccormick3[114]: x[114] + u[114] - r[114] <= 1
 mccormick3[115]: x[115] + u[115] - r[115] <= 1
 mccormick3[116]: x[116] + u[116] - r[116] <= 1
 mccormick3[117]: x[117] + u[117] - r[117] <= 1
 mccormick3[118]: x[118] + u[118] - r[118] <= 1
 mccormick3[119]: x[119] + u[119] - r[119] <= 1
Bounds
Binaries
 x[0] x[1] x[2] x[3] x[4] x[5] x[6] x[7] x[8] x[9] x[10] x[11] x[12] x[13]
 x[14] x[15] x[16] x[17] x[18] x[19] x[20] x[21] x[22] x[23] x[24] x[25]
 x[26] x[27] x[28] x[29] x[30] x[31] x[32] x[33] x[34] x[35] x[36] x[37]
 x[38] x[39] x[40] x[41] x[42] x[43] x[44] x[45] x[46] x[47] x[48] x[49]
 x[50] x[51] x[52] x[53] x[54] x[55] x[56] x[57] x[58] x[59] x[60] x[61]
 x[62] x[63] x[64] x[65] x[66] x[67] x[68] x[69] x[70] x[71] x[72] x[73]
 x[74] x[75] x[76] x[77] x[78] x[79] x[80] x[81] x[82] x[83] x[84] x[85]
 x[86] x[87] x[88] x[89] x[90] x[91] x[92] x[93] x[94] x[95] x[96] x[97]
 x[98] x[99] x[100] x[101] x[102] x[103] x[104] x[105] x[106] x[107] x[108]
 x[109] x[110] x[111] x[112] x[113] x[114] x[115] x[116] x[117] x[118]
 x[119] u[0] u[1] u[2] u[3] u[4] u[5] u[6] u[7] u[8] u[9] u[10] u[11] u[12]
 u[13] u[14] u[15] u[16] u[17] u[18] u[19] u[20] u[21] u[22] u[23] u[24]
 u[25] u[26] u[27] u[28] u[29] u[30] u[31] u[32] u[33] u[34] u[35] u[36]
 u[37] u[38] u[39] u[40] u[41] u[42] u[43] u[44] u[45] u[46] u[47] u[48]
 u[49] u[50] u[51] u[52] u[53] u[54] u[55] u[56] u[57] u[58] u[59] u[60]
 u[61] u[62] u[63] u[64] u[65] u[66] u[67] u[68] u[69] u[70] u[71] u[72]
 u[73] u[74] u[75] u[76] u[77] u[78] u[79] u[80] u[81] u[82] u[83] u[84]
 u[85] u[86] u[87] u[88] u[89] u[90] u[91] u[92] u[93] u[94] u[95] u[96]
 u[97] u[98] u[99] u[100] u[101] u[102] u[103] u[104] u[105] u[106] u[107]
 u[108] u[109] u[110] u[111] u[112] u[113] u[114] u[115] u[116] u[117]
 u[118] u[119] r[0] r[1] r[2] r[3] r[4] r[5] r[6] r[7] r[8] r[9] r[10]
 r[11] r[12] r[13] r[14] r[15] r[16] r[17] r[18] r[19] r[20] r[21] r[22]
 r[23] r[24] r[25] r[26] r[27] r[28] r[29] r[30] r[31] r[32] r[33] r[34]
 r[35] r[36] r[37] r[38] r[39] r[40] r[41] r[42] r[43] r[44] r[45] r[46]
 r[47] r[48] r[49] r[50] r[51] r[52] r[53] r[54] r[55] r[56] r[57] r[58]
 r[59] r[60] r[61] r[62] r[63] r[64] r[65] r[66] r[67] r[68] r[69] r[70]
 r[71] r[72] r[73] r[74] r[75] r[76] r[77] r[78] r[79] r[80] r[81] r[82]
 r[83] r[84] r[85] r[86] r[87] r[88] r[89] r[90] r[91] r[92] r[93] r[94]
 r[95] r[96] r[97] r[98] r[99] r[100] r[101] r[102] r[103] r[104] r[105]
 r[106] r[107] r[108] r[109] r[110] r[111] r[112] r[113] r[114] r[115]
 r[116] r[117] r[118] r[119]
End
