instances/knapsack/discrete_knapsack_uncertainty/knapsack_120_14.kp
68189
120
612

59 5.9 72
48 4.8 96
90 9.0 86
43 4.3 22
12 1.2 83
9 0.9 87
49 4.9 51
87 8.7 77
93 9.3 56
26 2.6 80
23 2.3 21
87 8.7 65
48 4.8 53
32 3.2 24
92 9.2 1
8 0.8 14
61 6.1 16
76 7.6 12
33 3.3 56
54 5.4 39
17 1.7 91
91 9.1 1
96 9.6 34
42 4.2 54
92 9.2 35
16 1.6 84
30 3.0 22
31 3.1 57
85 8.5 4
39 3.9 6
17 1.7 67
95 9.5 18
59 5.9 6
73 7.3 25
60 6.0 81
69 6.9 27
96 9.6 59
48 4.8 37
60 6.0 84
98 9.8 45
7 0.7 30
29 2.9 31
30 3.0 19
53 5.3 73
63 6.3 36
58 5.8 69
37 3.7 90
41 4.1 10
59 5.9 30
72 7.2 35
10 1.0 33
60 6.0 20
65 6.5 13
84 8.4 99
92 9.2 78
3 0.3 44
25 2.5 40
94 9.4 58
60 6.0 66
70 7.0 17
8 0.8 74
94 9.4 80
47 4.7 19
18 1.8 75
39 3.9 72
36 3.6 7
80 8.0 59
14 1.4 55
76 7.6 50
25 2.5 31
5 0.5 55
69 6.9 77
42 4.2 39
31 3.1 79
51 5.1 16
96 9.6 60
34 3.4 16
79 7.9 87
72 7.2 94
2 0.2 9
73 7.3 81
45 4.5 48
78 7.8 47
57 5.7 24
65 6.5 75
9 0.9 66
67 6.7 72
88 8.8 41
82 8.2 78
7 0.7 80
48 4.8 28
48 4.8 99
76 7.6 11
31 3.1 30
16 1.6 82
13 1.3 92
93 9.3 3
20 2.0 66
80 8.0 94
88 8.8 50
1 0.1 82
20 2.0 43
18 1.8 36
28 2.8 71
89 8.9 29
62 6.2 25
39 3.9 100
26 2.6 18
90 9.0 20
97 9.7 10
86 8.6 43
79 7.9 48
61 6.1 87
89 8.9 97
61 6.1 72
94 9.4 67
35 3.5 69
25 2.5 47
77 7.7 76
100 10.0 25

75842
562

[4.120067803542993 0.995184126475716 0.17760136948041064 1.544502538070966 3.004524281347893 0.06768112882868202 2.2626796447628426 0.058478735508995794 0.34136672249601807 2.06819410156309 3.0161502338395065 4.66564140214189 0.9466953993963039 3.88157338466896 2.4173348964495296 3.7876819315868087 0.23700108777126136 3.6909059768542662 2.368005086970002 0.1312863210972713 3.600118849356695 0.3463754586133221 4.660402917969324 4.330514986913011 0.9444075949886095 4.643721663245022 2.1162277952870627 0.09452198945393737 4.163065126805235 1.9581606640496974 0.4259043996208605 1.2467239373232695 1.648897044795188 0.4330862552286953 3.4252330227622254 2.442580090707451 2.311332558600705 4.475863243418067 2.9777515802833046 0.5427990759477759 4.479570944796898 4.515628176371237 0.2663435810617423 0.25450889560116674 4.346152229190757 1.2979507368093812 4.285537451100113 1.1233247783107696 2.1951568252095015 1.0699304319303258 0.7745998526049626 4.290953758229831 4.6205177678456835 1.543485984838871 3.346333675231598 0.9275324379135781 2.67165254384917 0.20454168166594047 3.2453099159633227 4.579073368087737 2.864803759935205 1.4553769286741323 2.9980521231943404 2.0606293348336595 1.5301447432391198 1.272253556298144 0.48564549315503025 3.4991439574675187 2.9981262644416953 0.8189143417050923 2.646779036269012 1.351610682834752 1.131596095933911 1.0771202454305204 3.892748412939954 0.4215281284927428 2.2433590243981905 4.2555334898190855 3.226653829369126 3.9072155519277842 3.0766664303143143 1.2789211004109606 3.561630991744258 1.5761693980188123 3.1393461775746525 2.3483045073154587 1.7933143336399189 3.4372967626820565 2.049347973269728 0.2649865177895136 4.212502525161488 1.2834178583504359 2.8414224054944848 0.8777947235729769 2.1176698949818307 0.838806934279228 4.346477375685948 4.162626392144519 1.8709588009347016 3.088713142587601 4.351307925417014 2.871705130061743 3.9800383780188615 0.27181135821582975 1.5727149583364384 0.7313773030296219 4.035951609646066 3.1998612557696866 1.6242279435030533 4.625479478040875 3.836216511506626 0.11660377251007582 3.45028485913868 0.2956770617508345 1.1036212928080928 4.6325952981577645 2.5443059141659634 2.5079649687232397 1.541048294614918 0.08968602432552988]

[40 68 54 71 36 42 77 68 21 42 76 19 60 44 49 77 29 52 73 34 17 28 20 87 9 52 86 36 38 87 38 60 28 13 32 29 44 93 88 99 79 6 38 78 83 23 78 58 15 84 55 16 89 4 77 64 97 27 12 82 37 19 36 99 32 64 29 7 56 94 10 22 10 47 20 1 87 31 69 35 78 62 3 14 10 38 4 8 14 43 73 33 25 32 100 69 85 49 80 48 93 72 82 28 65 62 79 47 31 77 87 71 73 9 25 71 71 77 1 29]
